# Labeled dice problem
param n := 4;
param num_words := 13;

# no "x" or "z"
set letters = a b c d e f g h i j k l m n o p q r s t u v w y;

param words: 1 2 3 4 :=
 1  b u o y 
 2  c a v e  
 3  c e l t  
 4  f l u b  
 5  f o r k  
 6  h e m p  
 7  j u d y  
 8  j u n k  
 9  l i m n  
10  q u i p  
11  s w a g  
12  v i s a  
13  w i s h
;
